c colouring generated by benchmark framework
p edge 300 21695
v 1 29
v 2 20
v 3 2
v 4 17
v 5 35
v 6 23
v 7 23
v 8 5
v 9 22
v 10 16
v 11 11
v 12 18
v 13 8
v 14 3
v 15 11
v 16 14
v 17 28
v 18 30
v 19 22
v 20 25
v 21 37
v 22 13
v 23 8
v 24 32
v 25 36
v 26 27
v 27 21
v 28 27
v 29 41
v 30 10
v 31 42
v 32 24
v 33 19
v 34 28
v 35 30
v 36 20
v 37 21
v 38 19
v 39 6
v 40 38
v 41 23
v 42 18
v 43 6
v 44 15
v 45 29
v 46 18
v 47 5
v 48 22
v 49 23
v 50 24
v 51 4
v 52 8
v 53 19
v 54 29
v 55 41
v 56 34
v 57 30
v 58 36
v 59 32
v 60 10
v 61 5
v 62 17
v 63 26
v 64 18
v 65 13
v 66 5
v 67 2
v 68 28
v 69 3
v 70 14
v 71 13
v 72 38
v 73 8
v 74 12
v 75 20
v 76 14
v 77 6
v 78 8
v 79 39
v 80 36
v 81 36
v 82 36
v 83 4
v 84 0
v 85 41
v 86 25
v 87 26
v 88 31
v 89 26
v 90 7
v 91 1
v 92 0
v 93 36
v 94 33
v 95 38
v 96 8
v 97 14
v 98 42
v 99 22
v 100 19
v 101 35
v 102 34
v 103 28
v 104 42
v 105 5
v 106 23
v 107 5
v 108 12
v 109 11
v 110 15
v 111 35
v 112 40
v 113 7
v 114 9
v 115 10
v 116 6
v 117 35
v 118 18
v 119 0
v 120 9
v 121 4
v 122 2
v 123 16
v 124 14
v 125 1
v 126 17
v 127 33
v 128 15
v 129 32
v 130 0
v 131 22
v 132 33
v 133 27
v 134 35
v 135 38
v 136 27
v 137 34
v 138 24
v 139 1
v 140 37
v 141 3
v 142 32
v 143 29
v 144 42
v 145 22
v 146 0
v 147 40
v 148 4
v 149 34
v 150 0
v 151 1
v 152 24
v 153 31
v 154 31
v 155 33
v 156 25
v 157 4
v 158 10
v 159 39
v 160 40
v 161 15
v 162 2
v 163 20
v 164 9
v 165 31
v 166 40
v 167 39
v 168 0
v 169 15
v 170 10
v 171 16
v 172 1
v 173 21
v 174 12
v 175 7
v 176 4
v 177 10
v 178 29
v 179 40
v 180 21
v 181 6
v 182 2
v 183 11
v 184 21
v 185 5
v 186 22
v 187 38
v 188 3
v 189 29
v 190 19
v 191 17
v 192 39
v 193 12
v 194 42
v 195 5
v 196 19
v 197 6
v 198 14
v 199 27
v 200 36
v 201 31
v 202 16
v 203 13
v 204 16
v 205 31
v 206 9
v 207 7
v 208 11
v 209 1
v 210 15
v 211 3
v 212 6
v 213 4
v 214 20
v 215 40
v 216 41
v 217 41
v 218 4
v 219 7
v 220 36
v 221 15
v 222 4
v 223 30
v 224 32
v 225 21
v 226 33
v 227 27
v 228 39
v 229 42
v 230 31
v 231 33
v 232 41
v 233 28
v 234 24
v 235 12
v 236 19
v 237 33
v 238 37
v 239 20
v 240 26
v 241 34
v 242 39
v 243 34
v 244 13
v 245 8
v 246 33
v 247 12
v 248 29
v 249 27
v 250 25
v 251 23
v 252 10
v 253 7
v 254 0
v 255 12
v 256 25
v 257 25
v 258 32
v 259 8
v 260 19
v 261 3
v 262 1
v 263 18
v 264 30
v 265 25
v 266 11
v 267 27
v 268 33
v 269 10
v 270 5
v 271 37
v 272 9
v 273 18
v 274 16
v 275 12
v 276 2
v 277 27
v 278 2
v 279 36
v 280 13
v 281 7
v 282 21
v 283 24
v 284 13
v 285 16
v 286 39
v 287 8
v 288 24
v 289 13
v 290 17
v 291 38
v 292 9
v 293 7
v 294 37
v 295 2
v 296 14
v 297 20
v 298 9
v 299 11
v 300 38
